; PUSH 0x00 PUSH cw_3 MLOAD DUP1 DUP3 ISZERO => PUSH 0x00 PUSH cw_3 MLOAD DUP1 PUSH 0x01
(set-option :produce-proofs true)
; 
(set-info :status unknown)
(declare-fun storage_t ((_ BitVec 256) (_ BitVec 256) Int (_ BitVec 256)) (_ BitVec 256))
(declare-fun w_3 () (_ BitVec 256))
(declare-fun storage_s ((_ BitVec 256) (_ BitVec 256) Int (_ BitVec 256)) (_ BitVec 256))
(declare-fun exc_halt_t (Int) Bool)
(declare-fun exc_halt_s (Int) Bool)
(declare-fun sc_t (Int) (_ BitVec 6))
(declare-fun stack_t ((_ BitVec 256) (_ BitVec 256) Int (_ BitVec 6)) (_ BitVec 256))
(declare-fun stack_s ((_ BitVec 256) (_ BitVec 256) Int (_ BitVec 6)) (_ BitVec 256))
(declare-fun sc_s (Int) (_ BitVec 6))
(declare-fun used_gas_t ((_ BitVec 256) (_ BitVec 256) Int) Int)
(declare-fun used_gas_s ((_ BitVec 256) (_ BitVec 256) Int) Int)
(declare-fun f_MLOAD ((_ BitVec 256) (_ BitVec 256) (_ BitVec 256)) (_ BitVec 256))
(assert
 (exists ((x_MLOAD_0 (_ BitVec 256)) )(let (($x5729 (forall ((w (_ BitVec 256)) )(let ((?x11180 (storage_t w_3 x_MLOAD_0 5 w)))
 (let ((?x9357 (storage_s w_3 x_MLOAD_0 6 w)))
 (= ?x9357 ?x11180))))
 ))
 (let (($x886 (exc_halt_t 5)))
 (let (($x772 (exc_halt_s 6)))
 (let (($x889 (= $x772 $x886)))
 (let (($x766 (forall ((n (_ BitVec 6)) )(let ((?x919 (sc_t 5)))
 (let (($x9142 (bvsle ?x919 n)))
 (let ((?x297 (stack_t w_3 x_MLOAD_0 5 n)))
 (let ((?x8713 (stack_s w_3 x_MLOAD_0 6 n)))
 (let (($x2196 (= ?x8713 ?x297)))
 (or $x2196 $x9142)))))))
 ))
 (let ((?x919 (sc_t 5)))
 (let ((?x926 (sc_s 6)))
 (let (($x929 (= ?x926 ?x919)))
 (let ((?x2300 (used_gas_t w_3 x_MLOAD_0 0)))
 (let ((?x3706 (used_gas_s w_3 x_MLOAD_0 0)))
 (let (($x5160 (= ?x3706 ?x2300)))
 (let (($x10367 (forall ((w (_ BitVec 256)) )(let ((?x2445 (storage_t w_3 x_MLOAD_0 0 w)))
 (let ((?x6940 (storage_s w_3 x_MLOAD_0 0 w)))
 (= ?x6940 ?x2445))))
 ))
 (let (($x56 (exc_halt_t 0)))
 (let (($x57 (exc_halt_s 0)))
 (let (($x58 (= $x57 $x56)))
 (let (($x319 (forall ((n (_ BitVec 6)) )(let ((?x63 (sc_t 0)))
 (let (($x11783 (bvsle ?x63 n)))
 (let ((?x3546 (stack_t w_3 x_MLOAD_0 0 n)))
 (let ((?x3818 (stack_s w_3 x_MLOAD_0 0 n)))
 (let (($x1273 (= ?x3818 ?x3546)))
 (or $x1273 $x11783)))))))
 ))
 (let ((?x63 (sc_t 0)))
 (let ((?x72 (sc_s 0)))
 (let (($x73 (= ?x72 ?x63)))
 (let (($x3723 (exc_halt_t 4)))
 (let (($x4412 (or $x3723 (not (= ((_ extract 6 6) (bvadd (_ bv1 7) (concat (_ bv0 1) (sc_t 4)))) (_ bv0 1))))))
 (let (($x8940 (forall ((w (_ BitVec 256)) )(let ((?x5529 (storage_t w_3 x_MLOAD_0 4 w)))
 (let ((?x11180 (storage_t w_3 x_MLOAD_0 5 w)))
 (= ?x11180 ?x5529))))
 ))
 (let (($x8139 (forall ((n (_ BitVec 6)) )(or (= (stack_t w_3 x_MLOAD_0 5 n) (stack_t w_3 x_MLOAD_0 4 n)) (bvsle (sc_t 4) n)))
 ))
 (let (($x1555 (= (used_gas_t w_3 x_MLOAD_0 5) (+ 3 (used_gas_t w_3 x_MLOAD_0 4)))))
 (let (($x6783 (exc_halt_t 3)))
 (let (($x5764 (or $x6783 (not (bvsle (_ bv0 6) (bvadd (_ bv63 6) (sc_t 3)))) (not (= ((_ extract 6 6) (bvadd (_ bv1 7) (concat (_ bv0 1) (sc_t 3)))) (_ bv0 1))))))
 (let (($x3363 (forall ((w (_ BitVec 256)) )(let ((?x7947 (storage_t w_3 x_MLOAD_0 3 w)))
 (let ((?x5529 (storage_t w_3 x_MLOAD_0 4 w)))
 (= ?x5529 ?x7947))))
 ))
 (let (($x6236 (forall ((n (_ BitVec 6)) )(or (= (stack_t w_3 x_MLOAD_0 4 n) (stack_t w_3 x_MLOAD_0 3 n)) (bvsle (bvadd (_ bv63 6) (sc_t 3)) n)))
 ))
 (let ((?x1055 (used_gas_t w_3 x_MLOAD_0 4)))
 (let ((?x6438 (sc_t 3)))
 (let ((?x7459 (bvadd (_ bv63 6) ?x6438)))
 (let ((?x2097 (stack_t w_3 x_MLOAD_0 3 ?x7459)))
 (let (($x4644 (= $x6783 (or (exc_halt_t 2) (not (bvsle (_ bv0 6) (bvadd (_ bv63 6) (sc_t 2))))))))
 (let (($x1532 (forall ((w (_ BitVec 256)) )(let ((?x2413 (storage_t w_3 x_MLOAD_0 2 w)))
 (let ((?x7947 (storage_t w_3 x_MLOAD_0 3 w)))
 (= ?x7947 ?x2413))))
 ))
 (let (($x8252 (forall ((n (_ BitVec 6)) )(let ((?x2714 (sc_t 2)))
 (let ((?x3328 (bvadd (_ bv63 6) ?x2714)))
 (let (($x1113 (bvsle ?x3328 n)))
 (or $x1113 (= (stack_t w_3 x_MLOAD_0 3 n) (stack_t w_3 x_MLOAD_0 2 n)))))))
 ))
 (let ((?x2714 (sc_t 2)))
 (let (($x4276 (= ?x6438 ?x2714)))
 (let ((?x9110 (used_gas_t w_3 x_MLOAD_0 3)))
 (let (($x8545 (= ?x2097 (f_MLOAD w_3 x_MLOAD_0 (stack_t w_3 x_MLOAD_0 2 (bvadd (_ bv63 6) ?x2714))))))
 (let (($x6748 (not (= ((_ extract 6 6) (bvadd (_ bv1 7) (concat (_ bv0 1) (sc_t 1)))) (_ bv0 1)))))
 (let (($x3508 (exc_halt_t 1)))
 (let (($x5252 (exc_halt_t 2)))
 (let (($x762 (forall ((w (_ BitVec 256)) )(let ((?x1834 (storage_t w_3 x_MLOAD_0 1 w)))
 (let ((?x2413 (storage_t w_3 x_MLOAD_0 2 w)))
 (= ?x2413 ?x1834))))
 ))
 (let (($x9575 (forall ((n (_ BitVec 6)) )(let ((?x8347 (sc_t 1)))
 (let (($x11298 (bvsle ?x8347 n)))
 (or (= (stack_t w_3 x_MLOAD_0 2 n) (stack_t w_3 x_MLOAD_0 1 n)) $x11298))))
 ))
 (let (($x995 (= ?x2714 (bvadd (_ bv1 6) (sc_t 1)))))
 (let ((?x648 (used_gas_t w_3 x_MLOAD_0 2)))
 (let (($x5562 (= $x3508 (or $x56 (not (= ((_ extract 6 6) (bvadd (_ bv1 7) (concat (_ bv0 1) ?x63))) (_ bv0 1)))))))
 (let (($x5597 (forall ((w (_ BitVec 256)) )(let ((?x2445 (storage_t w_3 x_MLOAD_0 0 w)))
 (let ((?x1834 (storage_t w_3 x_MLOAD_0 1 w)))
 (= ?x1834 ?x2445))))
 ))
 (let (($x411 (forall ((n (_ BitVec 6)) )(let ((?x63 (sc_t 0)))
 (let (($x11783 (bvsle ?x63 n)))
 (or (= (stack_t w_3 x_MLOAD_0 1 n) (stack_t w_3 x_MLOAD_0 0 n)) $x11783))))
 ))
 (let ((?x8347 (sc_t 1)))
 (let (($x934 (= ?x8347 (bvadd (_ bv1 6) ?x63))))
 (let (($x4266 (= $x772 (or (exc_halt_s 5) (not (bvsle (_ bv0 6) (bvadd (_ bv63 6) (sc_s 5))))))))
 (let (($x2644 (forall ((w (_ BitVec 256)) )(let ((?x3042 (storage_s w_3 x_MLOAD_0 5 w)))
 (let ((?x9357 (storage_s w_3 x_MLOAD_0 6 w)))
 (= ?x9357 ?x3042))))
 ))
 (let (($x5085 (forall ((n (_ BitVec 6)) )(or (bvsle (bvadd (_ bv63 6) (sc_s 5)) n) (= (stack_s w_3 x_MLOAD_0 6 n) (stack_s w_3 x_MLOAD_0 5 n))))
 ))
 (let ((?x4319 (sc_s 5)))
 (let (($x10659 (= ?x926 ?x4319)))
 (let (($x6455 (= (used_gas_s w_3 x_MLOAD_0 6) (+ 3 (used_gas_s w_3 x_MLOAD_0 5)))))
 (let (($x9294 (= (stack_s w_3 x_MLOAD_0 6 (bvadd (_ bv63 6) ?x926)) (ite (= (stack_s w_3 x_MLOAD_0 5 (bvadd (_ bv63 6) ?x4319)) (_ bv0 256)) (_ bv1 256) (_ bv0 256)))))
 (let (($x7172 (exc_halt_s 4)))
 (let (($x5318 (or (not (= ((_ extract 6 6) (bvadd (_ bv1 7) (concat (_ bv0 1) (sc_s 4)))) (_ bv0 1))) (not (bvsle (_ bv0 6) (bvadd (_ bv61 6) (sc_s 4)))) $x7172)))
 (let (($x11317 (exc_halt_s 5)))
 (let (($x5472 (forall ((w (_ BitVec 256)) )(let ((?x10044 (storage_s w_3 x_MLOAD_0 4 w)))
 (let ((?x3042 (storage_s w_3 x_MLOAD_0 5 w)))
 (= ?x3042 ?x10044))))
 ))
 (let (($x5070 (forall ((n (_ BitVec 6)) )(or (= (stack_s w_3 x_MLOAD_0 5 n) (stack_s w_3 x_MLOAD_0 4 n)) (bvsle (bvadd (_ bv61 6) (sc_s 4)) n)))
 ))
 (let ((?x8444 (used_gas_s w_3 x_MLOAD_0 5)))
 (let ((?x4305 (sc_s 4)))
 (let ((?x8501 (bvadd (_ bv63 6) ?x4305)))
 (let ((?x3442 (stack_s w_3 x_MLOAD_0 4 ?x8501)))
 (let (($x9956 (= (stack_s w_3 x_MLOAD_0 5 (bvadd (_ bv62 6) ?x4305)) (stack_s w_3 x_MLOAD_0 4 (bvadd (_ bv62 6) ?x4305)))))
 (let ((?x10326 (bvadd (_ bv61 6) ?x4305)))
 (let ((?x4511 (stack_s w_3 x_MLOAD_0 4 ?x10326)))
 (let (($x292 (exc_halt_s 3)))
 (let (($x9546 (or $x292 (not (= ((_ extract 6 6) (bvadd (_ bv1 7) (concat (_ bv0 1) (sc_s 3)))) (_ bv0 1))) (not (bvsle (_ bv0 6) (bvadd (_ bv63 6) (sc_s 3)))))))
 (let (($x9897 (forall ((w (_ BitVec 256)) )(let ((?x8844 (storage_s w_3 x_MLOAD_0 3 w)))
 (let ((?x10044 (storage_s w_3 x_MLOAD_0 4 w)))
 (= ?x10044 ?x8844))))
 ))
 (let (($x5052 (forall ((n (_ BitVec 6)) )(or (bvsle (bvadd (_ bv63 6) (sc_s 3)) n) (= (stack_s w_3 x_MLOAD_0 4 n) (stack_s w_3 x_MLOAD_0 3 n))))
 ))
 (let ((?x7131 (used_gas_s w_3 x_MLOAD_0 4)))
 (let ((?x275 (sc_s 3)))
 (let ((?x3294 (bvadd (_ bv63 6) ?x275)))
 (let ((?x2798 (stack_s w_3 x_MLOAD_0 3 ?x3294)))
 (let (($x7900 (= $x292 (or (exc_halt_s 2) (not (bvsle (_ bv0 6) (bvadd (_ bv63 6) (sc_s 2))))))))
 (let (($x5143 (forall ((w (_ BitVec 256)) )(let ((?x8386 (storage_s w_3 x_MLOAD_0 2 w)))
 (let ((?x8844 (storage_s w_3 x_MLOAD_0 3 w)))
 (= ?x8844 ?x8386))))
 ))
 (let (($x4177 (forall ((n (_ BitVec 6)) )(or (bvsle (bvadd (_ bv63 6) (sc_s 2)) n) (= (stack_s w_3 x_MLOAD_0 3 n) (stack_s w_3 x_MLOAD_0 2 n))))
 ))
 (let ((?x1447 (used_gas_s w_3 x_MLOAD_0 3)))
 (let ((?x8684 (f_MLOAD w_3 x_MLOAD_0 (stack_s w_3 x_MLOAD_0 2 (bvadd (_ bv63 6) (sc_s 2))))))
 (let (($x8177 (not (= ((_ extract 6 6) (bvadd (_ bv1 7) (concat (_ bv0 1) (sc_s 1)))) (_ bv0 1)))))
 (let (($x189 (exc_halt_s 1)))
 (let (($x247 (exc_halt_s 2)))
 (let (($x8613 (forall ((w (_ BitVec 256)) )(let ((?x9634 (storage_s w_3 x_MLOAD_0 1 w)))
 (let ((?x8386 (storage_s w_3 x_MLOAD_0 2 w)))
 (= ?x8386 ?x9634))))
 ))
 (let (($x506 (forall ((n (_ BitVec 6)) )(or (= (stack_s w_3 x_MLOAD_0 2 n) (stack_s w_3 x_MLOAD_0 1 n)) (bvsle (sc_s 1) n)))
 ))
 (let ((?x218 (sc_s 2)))
 (let (($x9548 (= ?x218 (bvadd (_ bv1 6) (sc_s 1)))))
 (let ((?x8714 (used_gas_s w_3 x_MLOAD_0 2)))
 (let (($x613 (= $x189 (or $x57 (not (= ((_ extract 6 6) (bvadd (_ bv1 7) (concat (_ bv0 1) ?x72))) (_ bv0 1)))))))
 (let (($x7261 (forall ((w (_ BitVec 256)) )(let ((?x6940 (storage_s w_3 x_MLOAD_0 0 w)))
 (let ((?x9634 (storage_s w_3 x_MLOAD_0 1 w)))
 (= ?x9634 ?x6940))))
 ))
 (let (($x8603 (forall ((n (_ BitVec 6)) )(let ((?x72 (sc_s 0)))
 (let (($x7436 (bvsle ?x72 n)))
 (or $x7436 (= (stack_s w_3 x_MLOAD_0 1 n) (stack_s w_3 x_MLOAD_0 0 n))))))
 ))
 (let ((?x154 (sc_s 1)))
 (let (($x10536 (= ?x154 (bvadd (_ bv1 6) ?x72))))
 (let (($x8061 (forall ((w0 (_ BitVec 256)) )(let ((?x11320 (ite (= (stack_s w_3 x_MLOAD_0 2 (bvadd (_ bv63 6) (sc_s 2))) w0) x_MLOAD_0 (_ bv0 256))))
 (let ((?x5386 (f_MLOAD w_3 x_MLOAD_0 w0)))
 (= ?x5386 ?x11320))))
 ))
 (let (($x2304 (forall ((w (_ BitVec 256)) )(let ((?x6940 (storage_s w_3 x_MLOAD_0 0 w)))
 (= ?x6940 (_ bv0 256))))
 ))
 (let (($x459 (= ?x3706 0)))
 (let (($x3095 (not $x57)))
 (let (($x4555 (= ?x72 (_ bv0 6))))
 (and $x4555 $x3095 $x459 $x2304 $x8061 (= (stack_s w_3 x_MLOAD_0 1 ?x72) (_ bv0 256)) (= (used_gas_s w_3 x_MLOAD_0 1) (+ 3 ?x3706)) $x10536 $x8603 $x7261 $x613 (= (stack_s w_3 x_MLOAD_0 2 ?x154) w_3) (= ?x8714 (+ 3 (used_gas_s w_3 x_MLOAD_0 1))) $x9548 $x506 $x8613 (= $x247 (or $x189 $x8177)) (= ?x2798 ?x8684) (= ?x1447 (+ 3 ?x8714)) (= ?x275 ?x218) $x4177 $x5143 $x7900 (= ?x3442 ?x2798) (= (stack_s w_3 x_MLOAD_0 4 ?x3294) ?x2798) (= ?x7131 (+ 3 ?x1447)) (= ?x4305 (bvadd (_ bv1 6) ?x275)) $x5052 $x9897 (= $x7172 $x9546) (= (stack_s w_3 x_MLOAD_0 5 (bvadd (_ bv63 6) ?x4319)) ?x4511) (= (stack_s w_3 x_MLOAD_0 5 ?x10326) ?x4511) $x9956 (= (stack_s w_3 x_MLOAD_0 5 ?x8501) ?x3442) (= ?x8444 (+ 3 ?x7131)) (= ?x4319 (bvadd (_ bv1 6) ?x4305)) $x5070 $x5472 (= $x11317 $x5318) $x9294 $x6455 $x10659 $x5085 $x2644 $x4266 (= (stack_t w_3 x_MLOAD_0 1 ?x63) (_ bv0 256)) (= (used_gas_t w_3 x_MLOAD_0 1) (+ 3 ?x2300)) $x934 $x411 $x5597 $x5562 (= (stack_t w_3 x_MLOAD_0 2 ?x8347) w_3) (= ?x648 (+ 3 (used_gas_t w_3 x_MLOAD_0 1))) $x995 $x9575 $x762 (= $x5252 (or $x3508 $x6748)) $x8545 (= ?x9110 (+ 3 ?x648)) $x4276 $x8252 $x1532 $x4644 (= (stack_t w_3 x_MLOAD_0 4 (bvadd (_ bv63 6) (sc_t 4))) ?x2097) (= (stack_t w_3 x_MLOAD_0 4 ?x7459) ?x2097) (= ?x1055 (+ 3 ?x9110)) (= (sc_t 4) (bvadd (_ bv1 6) ?x6438)) $x6236 $x3363 (= $x3723 $x5764) (= (stack_t w_3 x_MLOAD_0 5 (sc_t 4)) (_ bv1 256)) $x1555 (= ?x919 (bvadd (_ bv1 6) (sc_t 4))) $x8139 $x8940 (= $x886 $x4412) $x73 $x319 $x58 $x10367 $x5160 (not (and $x929 $x766 $x889 $x5729)))))))))))))))))))))))))))))))))))))))))))))))))))))))))))))))))))))))))))))))))))))))))))))))))))))))))
 )
(check-sat)
(get-proof)
